50 1768
1310 620 131 620 775 524 465 1240 917 1395 1048 620 310 1240 524 1310 1550 1240 775 620 786 1240 775 131 1179 1395 1240 262 655 262 655 930 775 917 393 620 655 620 917 775 786 1310 393 155 1085 786 775 1085 131 465 
980 472 98 472 590 392 354 944 686 1062 784 472 236 944 392 980 1180 944 590 472 588 944 590 98 882 1062 944 196 490 196 490 708 590 686 294 472 490 472 686 590 588 980 294 118 826 588 590 826 98 354 
